\ SCIP STATISTICS
\   Problem name     : model
\   Variables        : 62 (60 binary, 0 integer, 2 implicit integer, 0 continuous)
\   Constraints      : 43
Minimize
 Obj: +10 x00 +12 x01 +14 x02 +5 x03 +6 x10 +10 x11 +10 x12 +4 x13 +12 x20 +12 x21 +16 x22 +6 x23 +6 y001
      +6 y002 +8 y003 +6 y012 +8 y013 +8 y023 +7 y102 +8 y103 +7 y112 +8 y113 +8 y123 +7 y201 +5 y203
      +5 y213 +5 y223
Subject to
 c1: +1 x00 +1 x10 +1 x20 >= +1
 c2: +1 x01 +1 x11 +1 x21 >= +1
 c3: +1 x02 +1 x12 +1 x22 >= +1
 c4: +1 x03 +1 x13 +1 x23 >= +1
 c5: +1 x00 +1 x01 +1 x02 +1 x03 <= +2
 c6: +1 x10 +1 x11 +1 x12 +1 x13 <= +2
 c7: +1 x20 +1 x21 +1 x22 +1 x23 <= +2
